$molecule
0       1
N        0.0     0.0     0.548756750
N        0.0     0.0     -0.548756750
Gh       0.0     0.0     0.0
$end

$rem
JOBTYPE  sp
METHOD   eom-ccsd
BASIS    gen
GUI      2
EA_STATES       [0,0,5,0,0,0,0,0]
CC_TRANS_PROP 2
STATE_ANALYSIS 1
$end

$basis
N       0
aug-cc-pvtz
****
Gh      0
S   1   1.00
      0.0288000              1.0000000
S   1   1.00
      0.0144000              1.0000000
S   1   1.00
      0.0072000              1.0000000
P   1   1.00
      0.0245500              1.0000000
P   1   1.00
      0.0122750              1.0000000
P   1   1.00
      0.0061375              1.0000000
D   1   1.00
      0.0755000              1.0000000
D   1   1.00
      0.0377500              1.0000000
D   1   1.00
      0.0188750              1.0000000
****
$end